NAME : traveling-santa-2018-prime-paths.27808.tour
COMMENT : Length = 27808
COMMENT : Found by LKH [Keld Helsgaun] Sun Jun 12 20:00:32 2022
TYPE : TOUR
DIMENSION : 100
TOUR_SECTION
1
47
65
52
94
17
83
48
27
90
35
55
2
43
92
45
53
34
11
95
54
70
19
5
22
39
87
28
37
79
75
32
66
6
13
25
20
24
89
4
31
74
68
84
85
12
10
33
77
62
49
16
21
42
78
14
71
61
96
60
3
67
82
69
86
18
72
88
23
38
99
63
51
50
58
91
98
73
7
97
100
56
26
15
9
40
8
80
36
44
46
93
64
29
41
30
57
81
59
76
-1
EOF
